c FILE: anna.col
c Translated from Stanford GraphBase File: anna.gb
c Stanford GraphBase ID: book(?anna?,138,0,1,239,0,0,0)
p edge 138 986
b 11
e 18 4
e 18 6
e 18 7
e 18 8
e 18 9
e 18 11
e 18 13
e 18 15
e 18 16
e 19 18
e 20 16
e 20 17
e 20 18
e 21 6
e 21 18
e 21 20
e 23 18
e 26 18
e 28 18
e 29 18
e 29 20
e 30 20
e 30 27
e 30 29
e 31 18
e 33 16
e 33 18
e 33 20
e 35 18
e 36 1
e 36 5
e 36 6
e 36 7
e 36 11
e 36 13
e 36 16
e 36 18
e 36 20
e 36 21
e 36 26
e 36 28
e 36 33
e 37 36
e 39 18
e 40 18
e 41 18
e 44 18
e 44 21
e 45 2
e 45 6
e 45 18
e 45 36
e 46 18
e 46 20
e 48 36
e 50 18
e 51 18
e 51 36
e 52 36
e 53 18
e 54 22
e 54 33
e 55 18
e 57 32
e 57 54
e 59 18
e 59 36
e 61 12
e 61 34
e 61 45
e 62 18
e 62 40
e 63 18
e 64 18
e 64 26
e 64 33
e 64 35
e 64 36
e 64 40
e 64 45
e 64 54
e 64 62
e 66 36
e 67 54
e 68 18
e 68 20
e 68 21
e 68 46
e 69 30
e 70 32
e 70 54
e 70 57
e 71 36
e 72 18
e 72 22
e 72 24
e 72 25
e 72 28
e 72 30
e 72 32
e 72 33
e 72 36
e 72 37
e 72 38
e 72 47
e 72 49
e 72 54
e 72 56
e 72 57
e 72 64
e 72 67
e 72 70
e 73 32
e 73 57
e 73 70
e 73 72
e 74 3
e 74 6
e 74 7
e 74 11
e 74 14
e 74 16
e 74 17
e 74 18
e 74 19
e 74 20
e 74 21
e 74 29
e 74 30
e 74 33
e 74 36
e 74 44
e 74 45
e 74 46
e 74 59
e 74 60
e 74 65
e 74 68
e 74 72
e 75 18
e 75 74
e 76 18
e 76 36
e 76 51
e 77 32
e 77 36
e 77 37
e 77 54
e 77 57
e 77 67
e 77 70
e 77 72
e 77 73
e 78 14
e 78 17
e 78 18
e 78 19
e 78 20
e 78 21
e 78 33
e 78 74
e 79 18
e 79 28
e 79 36
e 79 72
e 80 18
e 80 36
e 81 7
e 81 18
e 81 36
e 81 74
e 82 45
e 82 61
e 83 9
e 83 18
e 83 36
e 83 59
e 83 63
e 83 74
e 84 47
e 84 72
e 85 18
e 85 36
e 85 53
e 85 58
e 85 72
e 85 74
e 86 69
e 87 18
e 88 18
e 89 9
e 89 18
e 89 19
e 89 33
e 89 36
e 89 58
e 89 72
e 89 74
e 89 78
e 89 83
e 89 85
e 90 18
e 90 35
e 90 64
e 91 7
e 91 18
e 91 36
e 91 74
e 91 81
e 92 18
e 92 20
e 92 21
e 92 55
e 92 74
e 92 78
e 93 36
e 93 72
e 94 34
e 94 61
e 95 10
e 95 12
e 95 18
e 95 20
e 95 22
e 95 25
e 95 26
e 95 29
e 95 30
e 95 33
e 95 34
e 95 36
e 95 37
e 95 38
e 95 45
e 95 47
e 95 51
e 95 54
e 95 61
e 95 64
e 95 65
e 95 70
e 95 72
e 95 74
e 95 76
e 95 77
e 95 79
e 95 82
e 95 93
e 95 94
e 96 18
e 96 50
e 97 93
e 97 95
e 98 10
e 98 95
e 99 7
e 99 18
e 99 36
e 99 51
e 99 74
e 99 76
e 99 78
e 99 81
e 99 91
e 99 95
e 100 18
e 100 33
e 100 34
e 100 36
e 100 51
e 100 54
e 100 61
e 100 72
e 100 76
e 100 94
e 100 95
e 100 99
e 101 32
e 101 57
e 101 70
e 101 72
e 101 73
e 101 77
e 102 72
e 102 84
e 103 13
e 103 18
e 103 36
e 104 12
e 104 61
e 104 95
e 105 18
e 105 74
e 106 36
e 106 52
e 106 72
e 106 95
e 107 18
e 108 18
e 108 36
e 108 72
e 108 74
e 108 85
e 108 89
e 108 95
e 108 106
e 109 72
e 109 95
e 110 72
e 110 95
e 110 100
e 111 72
e 112 72
e 113 18
e 114 18
e 115 36
e 115 45
e 115 93
e 115 95
e 115 97
e 116 7
e 116 18
e 116 24
e 116 36
e 116 37
e 116 49
e 116 52
e 116 70
e 116 72
e 116 74
e 116 77
e 116 81
e 116 91
e 116 95
e 116 99
e 116 106
e 116 109
e 116 112
e 117 60
e 117 74
e 118 7
e 118 18
e 118 36
e 118 53
e 118 85
e 119 74
e 120 33
e 120 54
e 120 64
e 120 72
e 120 95
e 120 112
e 121 18
e 122 25
e 122 43
e 122 72
e 122 95
e 123 18
e 123 55
e 123 74
e 123 78
e 123 92
e 124 95
e 124 98
e 125 36
e 126 58
e 126 85
e 126 89
e 126 118
e 127 18
e 127 29
e 127 36
e 127 41
e 127 45
e 127 74
e 128 116
e 130 18
e 130 20
e 130 46
e 130 68
e 130 74
e 131 49
e 131 72
e 131 116
e 132 8
e 132 18
e 133 36
e 133 42
e 133 49
e 133 72
e 133 106
e 133 109
e 133 111
e 133 116
e 133 128
e 133 131
e 134 53
e 134 85
e 135 7
e 135 9
e 135 14
e 135 17
e 135 18
e 135 20
e 135 29
e 135 36
e 135 59
e 135 60
e 135 65
e 135 74
e 135 78
e 135 81
e 135 83
e 135 85
e 135 89
e 135 91
e 135 95
e 135 99
e 135 108
e 135 116
e 135 117
e 135 119
e 135 129
e 136 6
e 136 7
e 136 9
e 136 18
e 136 19
e 136 20
e 136 21
e 136 26
e 136 36
e 136 45
e 136 59
e 136 64
e 136 74
e 136 78
e 136 81
e 136 83
e 136 85
e 136 89
e 136 91
e 136 93
e 136 95
e 136 99
e 136 108
e 136 115
e 136 116
e 136 135
e 137 36
e 137 49
e 137 109
e 137 116
e 138 7
e 138 9
e 138 16
e 138 18
e 138 19
e 138 20
e 138 21
e 138 29
e 138 33
e 138 36
e 138 45
e 138 46
e 138 47
e 138 53
e 138 54
e 138 58
e 138 59
e 138 64
e 138 68
e 138 72
e 138 74
e 138 78
e 138 81
e 138 83
e 138 85
e 138 89
e 138 91
e 138 95
e 138 99
e 138 108
e 138 112
e 138 116
e 138 118
e 138 120
e 138 126
e 138 127
e 138 130
e 138 134
e 138 135
e 138 136
